
# Init #
dimension   3
boundary    p p p 
units       real
atom_style  atomic

# Atom Definition #
read_data ${input_data}

# Settings #
pair_style table spline 10941

pair_coeff 1 1 ./pgnpmf/N20e.txt DE_GNP 75.6
pair_coeff 2 2 ./pgnpmf/N100e.txt DE_GNP 115.92
pair_coeff 1 2 ./pgnpmf/mixed_potentiale.txt DE_GNP 95.66

# Neighbor list calc frequency #
neigh_modify delay 0 every 1 check yes 

# Saving frequency #
variable ts_save equal floor(${steps_gen}*0.01)

# Dump #
dump 1 all custom 10000 ./pgnpmf/${folder}/generation/trajectory/trajectory_${usic}_${trial}.gen.custom type x y z ix iy iz
dump_modify 1 first no sort id
dump 2 all cfg 10000 ./pgnpmf/${folder}/generation/trajectory/dumpgen.tens_*.cfg mass type xs ys zs fx fy fz
dump_modify 2 element N20 N100

# Fix #
fix 1 all momentum 1000 linear 1 1 1 angular

variable T equal ${Temp}

variable nts equal ${steps_gen}/${ts}
variable long equal ${nts}*5

# Velocity # 
velocity all create ${T} ${Vseed} mom yes rot yes dist gaussian

fix 2 all nvt temp ${T} 370000 100.0 #iso 1.0 1.0 1000.0
run ${nts}

unfix 2

fix 3 all nvt temp 370000 370000 100.0
run ${long}

unfix 3

fix 4 all nvt temp 370000 3700000 $(100*dt)
run ${long}

unfix 4

fix 5 all nvt temp 3700000 ${T} 100.0
run ${nts}

# Thermo #
thermo_style custom step temp press pe ke etotal epair lx ly lz xlo xhi ylo yhi zlo zhi vol density dt time 

# Run stle #
run_style verlet

# Run #
timestep ${ts}
thermo ${ts_save}
# run ${steps_gen}

# write restart #
write_restart ${write_restart}


